################### Instance Number: 23
Numero di nodi nella rete: 100
Numero di archi nella rete: 886
Numero di Ordini: 300
########################### CREATION OF THE ILP MODEL ############################
Start TIME to creation of the model: 2016-07-16 19:15:38.949000
FINISH TIME to creation of the model: 2016-07-16 19:16:13.104000
Impiegati 34.1550002098 secondi.
########################### WRITE THE LP MODEL ############################
############################ INIZIO A RISOLVERE IL PROBLEMA ##########################

Gurobi Optimizer version 6.5.1 build v6.5.1rc3 (win64)
Copyright (c) 2016, Gurobi Optimization, Inc.

Read LP format model from file C:\Users\Filippo\AppData\Local\Temp\6496-pulp.lp
Reading time = 1.81 seconds
(null): 31186 rows, 265800 columns, 1063200 nonzeros
Optimize a model with 31186 rows, 265800 columns and 1063200 nonzeros
Coefficient statistics:
  Matrix range    [1e+00, 1e+01]
  Objective range [3e+01, 3e+03]
  Bounds range    [1e+00, 1e+00]
  RHS range       [1e+00, 2e+02]
Presolve time: 2.00s
Presolved: 31186 rows, 265800 columns, 1002900 nonzeros
Variable types: 0 continuous, 265800 integer (265800 binary)

Root relaxation: objective 6.742900e+05, 7397 iterations, 0.49 seconds

    Nodes    |    Current Node    |     Objective Bounds      |     Work
 Expl Unexpl |  Obj  Depth IntInf | Incumbent    BestBd   Gap | It/Node Time

     0     0 674289.996    0  322          - 674289.996      -     -    3s
H    0     0                    969639.43750 674289.996  30.5%     -    4s
H    0     0                    947995.71190 674289.996  28.9%     -    4s
H    0     0                    688799.53200 674289.996  2.11%     -    4s
H    0     0                    680675.42140 674289.996  0.94%     -    8s
     0     0 677205.959    0  451 680675.421 677205.959  0.51%     -    9s
     0     0 677616.882    0  472 680675.421 677616.882  0.45%     -   10s
     0     0 679135.056    0  471 680675.421 679135.056  0.23%     -   12s
     0     0 679665.687    0  476 680675.421 679665.687  0.15%     -   14s
     0     0 679961.381    0  597 680675.421 679961.381  0.10%     -   16s
     0     0 679961.381    0  225 680675.421 679961.381  0.10%     -   19s
     0     0 679961.381    0  402 680675.421 679961.381  0.10%     -   20s
     0     0 679961.381    0  347 680675.421 679961.381  0.10%     -   21s
     0     0 679961.381    0  540 680675.421 679961.381  0.10%     -   21s
     0     0 680014.219    0  441 680675.421 680014.219  0.10%     -   21s
     0     0 680141.664    0  521 680675.421 680141.664  0.08%     -   22s
     0     0 680141.664    0  155 680675.421 680141.664  0.08%     -   23s
H    0     0                    680670.32290 680141.664  0.08%     -   24s
     0     0 680141.664    0  274 680670.323 680141.664  0.08%     -   24s
     0     0 680141.664    0  281 680670.323 680141.664  0.08%     -   24s
     0     0 680141.664    0  341 680670.323 680141.664  0.08%     -   24s
     0     0 680141.664    0  365 680670.323 680141.664  0.08%     -   24s
     0     0 680158.853    0  428 680670.323 680158.853  0.08%     -   25s
     0     0 680256.615    0  402 680670.323 680256.615  0.06%     -   25s
     0     0 680355.284    0  509 680670.323 680355.284  0.05%     -   25s
     0     0 680355.284    0  104 680670.323 680355.284  0.05%     -   26s
     0     0 680355.284    0  177 680670.323 680355.284  0.05%     -   26s
     0     0 680355.284    0  181 680670.323 680355.284  0.05%     -   26s
     0     0 680355.284    0  231 680670.323 680355.284  0.05%     -   26s
     0     0 680355.284    0  208 680670.323 680355.284  0.05%     -   26s
     0     0 680355.284    0  301 680670.323 680355.284  0.05%     -   26s
     0     0 680355.284    0  250 680670.323 680355.284  0.05%     -   26s
     0     0 680387.029    0  235 680670.323 680387.029  0.04%     -   26s
     0     0 680387.029    0  102 680670.323 680387.029  0.04%     -   27s
     0     0 680387.029    0  159 680670.323 680387.029  0.04%     -   27s
     0     0 680387.029    0  147 680670.323 680387.029  0.04%     -   27s
     0     0 680387.029    0  236 680670.323 680387.029  0.04%     -   27s
     0     0 680387.029    0  227 680670.323 680387.029  0.04%     -   27s
     0     0 680387.029    0  277 680670.323 680387.029  0.04%     -   27s
     0     0 680387.029    0  217 680670.323 680387.029  0.04%     -   27s
     0     0 680409.939    0  288 680670.323 680409.939  0.04%     -   27s
     0     0 680409.939    0   87 680670.323 680409.939  0.04%     -   27s
     0     0 680409.939    0  129 680670.323 680409.939  0.04%     -   28s
     0     0 680409.939    0  151 680670.323 680409.939  0.04%     -   28s
     0     0 680409.939    0  206 680670.323 680409.939  0.04%     -   28s
     0     0 680409.939    0  227 680670.323 680409.939  0.04%     -   28s
     0     0 680409.939    0  274 680670.323 680409.939  0.04%     -   28s
     0     0 680409.939    0  206 680670.323 680409.939  0.04%     -   28s
     0     0 680443.287    0  283 680670.323 680443.287  0.03%     -   28s
     0     0 680443.287    0   86 680670.323 680443.287  0.03%     -   28s
     0     0 680443.287    0  134 680670.323 680443.287  0.03%     -   28s
     0     0 680443.287    0  132 680670.323 680443.287  0.03%     -   28s
     0     0 680443.287    0  194 680670.323 680443.287  0.03%     -   28s
     0     0 680443.287    0  186 680670.323 680443.287  0.03%     -   28s
     0     0 680443.287    0  177 680670.323 680443.287  0.03%     -   28s
     0     0 680443.287    0  232 680670.323 680443.287  0.03%     -   28s
     0     0 680443.287    0  188 680670.323 680443.287  0.03%     -   28s
     0     0 680469.965    0  209 680670.323 680469.965  0.03%     -   28s
     0     0 680482.953    0  222 680670.323 680482.953  0.03%     -   28s
     0     0 680482.953    0   80 680670.323 680482.953  0.03%     -   28s
     0     0 680482.953    0  121 680670.323 680482.953  0.03%     -   28s
     0     0 680482.953    0  102 680670.323 680482.953  0.03%     -   28s
     0     0 680482.953    0  148 680670.323 680482.953  0.03%     -   28s
     0     0 680482.953    0  133 680670.323 680482.953  0.03%     -   28s
     0     0 680482.953    0  176 680670.323 680482.953  0.03%     -   28s
     0     0 680482.953    0  200 680670.323 680482.953  0.03%     -   28s
     0     0 680482.953    0  185 680670.323 680482.953  0.03%     -   28s
     0     0 680482.953    0   74 680670.323 680482.953  0.03%     -   28s
     0     0 680482.953    0  120 680670.323 680482.953  0.03%     -   28s
     0     0 680482.953    0  115 680670.323 680482.953  0.03%     -   28s
     0     0 680482.953    0  172 680670.323 680482.953  0.03%     -   28s
     0     0 680482.953    0  154 680670.323 680482.953  0.03%     -   28s
     0     0 680482.953    0  168 680670.323 680482.953  0.03%     -   28s
     0     0 680482.953    0  145 680670.323 680482.953  0.03%     -   28s
     0     0 680482.953    0  175 680670.323 680482.953  0.03%     -   28s
     0     2 680482.953    0  175 680670.323 680482.953  0.03%     -   29s

Cutting planes:
  Gomory: 9
  Cover: 100
  Clique: 4
  MIR: 57
  GUB cover: 22

Explored 499 nodes (38342 simplex iterations) in 29.36 seconds
Thread count was 4 (of 4 available processors)

Optimal solution found (tolerance 1.00e-04)
Best objective 6.806703229000e+05, best bound 6.806275494709e+05, gap 0.0063%

Wrote result file 'C:\Users\Filippo\AppData\Local\Temp\6496-pulp.sol'

('Status:', 'Optimal')
('Total Cost of Ingredients per can = ', 680670.3229000003)
